c FILE: random-n100-d40-f-n100-d40-1.col

p edge 100 1980
e 1 5
e 1 6
e 1 7
e 1 13
e 1 14
e 1 15
e 1 18
e 1 19
e 1 20
e 1 21
e 1 22
e 1 24
e 1 29
e 1 30
e 1 31
e 1 32
e 1 40
e 1 41
e 1 42
e 1 43
e 1 47
e 1 49
e 1 50
e 1 52
e 1 55
e 1 57
e 1 60
e 1 61
e 1 64
e 1 66
e 1 69
e 1 71
e 1 72
e 1 73
e 1 78
e 1 80
e 1 82
e 1 83
e 1 84
e 1 86
e 1 88
e 1 89
e 1 91
e 1 94
e 1 95
e 1 96
e 1 100
e 2 9
e 2 11
e 2 13
e 2 14
e 2 15
e 2 16
e 2 17
e 2 18
e 2 20
e 2 31
e 2 33
e 2 34
e 2 35
e 2 36
e 2 37
e 2 41
e 2 43
e 2 45
e 2 46
e 2 48
e 2 50
e 2 52
e 2 56
e 2 58
e 2 60
e 2 66
e 2 71
e 2 73
e 2 76
e 2 79
e 2 82
e 2 84
e 2 85
e 2 86
e 2 91
e 2 97
e 2 98
e 3 7
e 3 8
e 3 9
e 3 10
e 3 11
e 3 12
e 3 14
e 3 16
e 3 18
e 3 20
e 3 21
e 3 22
e 3 23
e 3 25
e 3 28
e 3 30
e 3 32
e 3 33
e 3 37
e 3 38
e 3 39
e 3 41
e 3 44
e 3 46
e 3 52
e 3 54
e 3 56
e 3 58
e 3 60
e 3 61
e 3 64
e 3 68
e 3 71
e 3 75
e 3 76
e 3 78
e 3 79
e 3 80
e 3 81
e 3 85
e 3 87
e 3 88
e 3 89
e 3 91
e 3 97
e 3 98
e 4 6
e 4 7
e 4 9
e 4 12
e 4 15
e 4 17
e 4 18
e 4 20
e 4 22
e 4 23
e 4 32
e 4 33
e 4 34
e 4 36
e 4 37
e 4 38
e 4 39
e 4 40
e 4 45
e 4 48
e 4 51
e 4 52
e 4 53
e 4 55
e 4 56
e 4 58
e 4 59
e 4 60
e 4 62
e 4 65
e 4 66
e 4 67
e 4 68
e 4 69
e 4 80
e 4 82
e 4 83
e 4 84
e 4 91
e 4 92
e 4 97
e 4 98
e 4 100
e 5 7
e 5 9
e 5 11
e 5 13
e 5 16
e 5 17
e 5 18
e 5 28
e 5 29
e 5 30
e 5 31
e 5 32
e 5 35
e 5 36
e 5 38
e 5 40
e 5 41
e 5 42
e 5 46
e 5 50
e 5 51
e 5 52
e 5 54
e 5 56
e 5 59
e 5 60
e 5 64
e 5 65
e 5 72
e 5 76
e 5 82
e 5 86
e 5 90
e 5 94
e 5 96
e 5 97
e 5 98
e 5 99
e 6 7
e 6 9
e 6 10
e 6 11
e 6 15
e 6 25
e 6 29
e 6 30
e 6 31
e 6 39
e 6 42
e 6 44
e 6 46
e 6 47
e 6 49
e 6 55
e 6 58
e 6 59
e 6 60
e 6 67
e 6 68
e 6 69
e 6 71
e 6 72
e 6 73
e 6 75
e 6 79
e 6 82
e 6 83
e 6 86
e 6 87
e 6 90
e 6 91
e 6 95
e 6 97
e 6 98
e 6 99
e 7 8
e 7 11
e 7 13
e 7 15
e 7 17
e 7 18
e 7 28
e 7 29
e 7 33
e 7 34
e 7 37
e 7 44
e 7 45
e 7 46
e 7 47
e 7 48
e 7 50
e 7 51
e 7 53
e 7 54
e 7 59
e 7 62
e 7 68
e 7 73
e 7 77
e 7 78
e 7 80
e 7 81
e 7 82
e 7 83
e 7 88
e 7 90
e 7 91
e 7 92
e 7 93
e 7 94
e 7 97
e 7 98
e 7 100
e 8 21
e 8 25
e 8 27
e 8 29
e 8 30
e 8 32
e 8 34
e 8 35
e 8 37
e 8 39
e 8 41
e 8 43
e 8 52
e 8 56
e 8 57
e 8 59
e 8 61
e 8 62
e 8 65
e 8 67
e 8 70
e 8 76
e 8 77
e 8 78
e 8 82
e 8 83
e 8 84
e 8 85
e 8 91
e 8 92
e 8 94
e 9 10
e 9 12
e 9 15
e 9 19
e 9 22
e 9 24
e 9 25
e 9 30
e 9 32
e 9 34
e 9 35
e 9 39
e 9 40
e 9 41
e 9 42
e 9 51
e 9 54
e 9 55
e 9 59
e 9 60
e 9 66
e 9 67
e 9 71
e 9 77
e 9 79
e 9 80
e 9 82
e 9 83
e 9 88
e 9 94
e 9 100
e 10 11
e 10 21
e 10 23
e 10 26
e 10 27
e 10 28
e 10 33
e 10 35
e 10 36
e 10 37
e 10 39
e 10 41
e 10 42
e 10 47
e 10 50
e 10 54
e 10 55
e 10 60
e 10 61
e 10 65
e 10 72
e 10 73
e 10 75
e 10 80
e 10 82
e 10 85
e 10 87
e 10 91
e 10 92
e 10 93
e 10 94
e 10 97
e 10 98
e 10 99
e 11 12
e 11 14
e 11 17
e 11 19
e 11 24
e 11 25
e 11 26
e 11 30
e 11 31
e 11 34
e 11 36
e 11 41
e 11 43
e 11 48
e 11 50
e 11 52
e 11 54
e 11 55
e 11 56
e 11 57
e 11 64
e 11 65
e 11 70
e 11 71
e 11 72
e 11 73
e 11 75
e 11 76
e 11 78
e 11 79
e 11 85
e 11 86
e 11 90
e 11 94
e 11 95
e 11 97
e 12 20
e 12 29
e 12 35
e 12 40
e 12 43
e 12 44
e 12 45
e 12 51
e 12 52
e 12 53
e 12 54
e 12 55
e 12 59
e 12 60
e 12 61
e 12 65
e 12 66
e 12 67
e 12 70
e 12 71
e 12 72
e 12 76
e 12 77
e 12 78
e 12 79
e 12 81
e 12 84
e 12 85
e 12 86
e 12 88
e 12 91
e 12 100
e 13 15
e 13 16
e 13 17
e 13 18
e 13 19
e 13 20
e 13 22
e 13 25
e 13 27
e 13 28
e 13 30
e 13 31
e 13 32
e 13 33
e 13 35
e 13 39
e 13 41
e 13 42
e 13 43
e 13 45
e 13 47
e 13 51
e 13 52
e 13 53
e 13 58
e 13 60
e 13 61
e 13 63
e 13 68
e 13 71
e 13 74
e 13 75
e 13 79
e 13 81
e 13 82
e 13 84
e 13 89
e 13 90
e 13 91
e 13 93
e 13 97
e 14 26
e 14 34
e 14 35
e 14 36
e 14 37
e 14 39
e 14 44
e 14 47
e 14 48
e 14 52
e 14 55
e 14 59
e 14 65
e 14 69
e 14 70
e 14 71
e 14 72
e 14 83
e 14 88
e 14 90
e 14 91
e 14 94
e 14 97
e 14 98
e 14 100
e 15 16
e 15 19
e 15 21
e 15 24
e 15 26
e 15 30
e 15 37
e 15 42
e 15 43
e 15 53
e 15 55
e 15 57
e 15 60
e 15 63
e 15 64
e 15 68
e 15 71
e 15 72
e 15 73
e 15 74
e 15 78
e 15 79
e 15 80
e 15 81
e 15 84
e 15 85
e 15 88
e 15 90
e 15 91
e 15 93
e 15 96
e 15 97
e 15 98
e 15 99
e 16 18
e 16 19
e 16 23
e 16 25
e 16 26
e 16 27
e 16 34
e 16 37
e 16 39
e 16 40
e 16 41
e 16 43
e 16 53
e 16 54
e 16 56
e 16 59
e 16 60
e 16 61
e 16 62
e 16 63
e 16 65
e 16 68
e 16 71
e 16 72
e 16 73
e 16 80
e 16 81
e 16 83
e 16 88
e 16 90
e 16 94
e 16 95
e 16 97
e 17 22
e 17 23
e 17 24
e 17 25
e 17 27
e 17 30
e 17 32
e 17 33
e 17 34
e 17 38
e 17 39
e 17 41
e 17 42
e 17 44
e 17 46
e 17 49
e 17 52
e 17 53
e 17 54
e 17 58
e 17 63
e 17 68
e 17 69
e 17 70
e 17 76
e 17 77
e 17 78
e 17 82
e 17 86
e 17 87
e 17 91
e 17 93
e 17 95
e 17 98
e 17 100
e 18 19
e 18 21
e 18 26
e 18 27
e 18 28
e 18 29
e 18 32
e 18 37
e 18 39
e 18 40
e 18 42
e 18 43
e 18 44
e 18 47
e 18 50
e 18 54
e 18 55
e 18 57
e 18 58
e 18 60
e 18 63
e 18 66
e 18 69
e 18 78
e 18 82
e 18 85
e 18 89
e 18 93
e 18 98
e 19 20
e 19 24
e 19 26
e 19 27
e 19 30
e 19 32
e 19 33
e 19 36
e 19 41
e 19 42
e 19 43
e 19 48
e 19 51
e 19 52
e 19 53
e 19 57
e 19 63
e 19 64
e 19 65
e 19 66
e 19 67
e 19 69
e 19 76
e 19 78
e 19 80
e 19 81
e 19 83
e 19 84
e 19 86
e 19 87
e 19 88
e 19 89
e 19 91
e 19 92
e 19 94
e 19 96
e 19 98
e 19 99
e 20 21
e 20 23
e 20 25
e 20 27
e 20 28
e 20 29
e 20 30
e 20 31
e 20 36
e 20 39
e 20 40
e 20 46
e 20 47
e 20 48
e 20 50
e 20 53
e 20 57
e 20 58
e 20 62
e 20 64
e 20 68
e 20 72
e 20 76
e 20 82
e 20 86
e 20 88
e 20 90
e 20 97
e 20 100
e 21 25
e 21 26
e 21 28
e 21 31
e 21 32
e 21 35
e 21 36
e 21 37
e 21 38
e 21 42
e 21 43
e 21 46
e 21 56
e 21 61
e 21 62
e 21 63
e 21 68
e 21 71
e 21 72
e 21 75
e 21 77
e 21 78
e 21 79
e 21 80
e 21 81
e 21 83
e 21 84
e 21 85
e 21 87
e 21 89
e 21 90
e 21 91
e 21 92
e 22 23
e 22 26
e 22 29
e 22 36
e 22 38
e 22 39
e 22 40
e 22 41
e 22 42
e 22 45
e 22 46
e 22 49
e 22 50
e 22 57
e 22 59
e 22 66
e 22 67
e 22 68
e 22 69
e 22 70
e 22 72
e 22 76
e 22 77
e 22 78
e 22 80
e 22 81
e 22 86
e 22 91
e 22 92
e 22 97
e 23 26
e 23 29
e 23 31
e 23 32
e 23 33
e 23 35
e 23 44
e 23 53
e 23 56
e 23 57
e 23 58
e 23 62
e 23 65
e 23 69
e 23 70
e 23 71
e 23 74
e 23 77
e 23 81
e 23 83
e 23 84
e 23 85
e 23 86
e 23 87
e 23 89
e 23 94
e 23 96
e 23 97
e 23 100
e 24 29
e 24 31
e 24 34
e 24 37
e 24 41
e 24 43
e 24 44
e 24 45
e 24 49
e 24 50
e 24 51
e 24 52
e 24 54
e 24 56
e 24 58
e 24 60
e 24 62
e 24 63
e 24 64
e 24 66
e 24 69
e 24 72
e 24 78
e 24 79
e 24 81
e 24 84
e 24 86
e 24 87
e 24 91
e 24 92
e 24 93
e 24 94
e 24 98
e 25 26
e 25 30
e 25 35
e 25 38
e 25 41
e 25 42
e 25 44
e 25 50
e 25 54
e 25 55
e 25 56
e 25 58
e 25 59
e 25 62
e 25 63
e 25 65
e 25 66
e 25 67
e 25 69
e 25 71
e 25 72
e 25 73
e 25 74
e 25 76
e 25 77
e 25 78
e 25 84
e 25 85
e 25 89
e 25 90
e 25 94
e 25 96
e 25 99
e 25 100
e 26 28
e 26 29
e 26 31
e 26 33
e 26 35
e 26 36
e 26 37
e 26 38
e 26 39
e 26 40
e 26 44
e 26 47
e 26 48
e 26 58
e 26 61
e 26 66
e 26 67
e 26 69
e 26 70
e 26 71
e 26 78
e 26 79
e 26 82
e 26 83
e 26 84
e 26 88
e 26 89
e 26 90
e 26 92
e 26 94
e 26 95
e 26 100
e 27 28
e 27 30
e 27 34
e 27 41
e 27 51
e 27 52
e 27 55
e 27 56
e 27 57
e 27 58
e 27 65
e 27 66
e 27 83
e 27 88
e 27 91
e 27 95
e 28 30
e 28 32
e 28 33
e 28 35
e 28 40
e 28 47
e 28 49
e 28 57
e 28 58
e 28 68
e 28 70
e 28 71
e 28 72
e 28 73
e 28 74
e 28 77
e 28 78
e 28 79
e 28 81
e 28 82
e 28 83
e 28 84
e 28 85
e 28 87
e 28 89
e 28 90
e 28 91
e 28 97
e 28 99
e 29 30
e 29 31
e 29 36
e 29 37
e 29 39
e 29 40
e 29 41
e 29 47
e 29 51
e 29 52
e 29 56
e 29 58
e 29 59
e 29 60
e 29 64
e 29 66
e 29 67
e 29 70
e 29 80
e 29 81
e 29 83
e 29 87
e 29 88
e 29 89
e 29 90
e 29 92
e 29 95
e 29 96
e 29 98
e 30 32
e 30 36
e 30 37
e 30 41
e 30 42
e 30 45
e 30 46
e 30 49
e 30 51
e 30 54
e 30 58
e 30 61
e 30 62
e 30 66
e 30 68
e 30 70
e 30 79
e 30 81
e 30 82
e 30 84
e 30 94
e 30 98
e 30 100
e 31 32
e 31 33
e 31 36
e 31 41
e 31 42
e 31 44
e 31 46
e 31 51
e 31 57
e 31 58
e 31 60
e 31 61
e 31 63
e 31 64
e 31 65
e 31 71
e 31 72
e 31 78
e 31 84
e 31 85
e 31 89
e 31 90
e 31 91
e 31 92
e 31 93
e 31 98
e 32 34
e 32 35
e 32 37
e 32 38
e 32 39
e 32 41
e 32 44
e 32 45
e 32 50
e 32 53
e 32 54
e 32 55
e 32 61
e 32 67
e 32 69
e 32 71
e 32 73
e 32 74
e 32 77
e 32 79
e 32 84
e 32 86
e 32 90
e 32 95
e 32 97
e 32 99
e 32 100
e 33 34
e 33 35
e 33 36
e 33 40
e 33 41
e 33 43
e 33 49
e 33 54
e 33 55
e 33 58
e 33 60
e 33 64
e 33 67
e 33 68
e 33 72
e 33 74
e 33 75
e 33 76
e 33 78
e 33 80
e 33 81
e 33 82
e 33 86
e 33 88
e 33 89
e 33 91
e 33 93
e 33 96
e 33 100
e 34 37
e 34 39
e 34 43
e 34 44
e 34 47
e 34 52
e 34 59
e 34 61
e 34 65
e 34 72
e 34 75
e 34 77
e 34 84
e 34 90
e 34 93
e 34 94
e 34 95
e 34 99
e 34 100
e 35 39
e 35 40
e 35 41
e 35 43
e 35 48
e 35 49
e 35 51
e 35 54
e 35 55
e 35 56
e 35 59
e 35 61
e 35 62
e 35 66
e 35 68
e 35 70
e 35 73
e 35 78
e 35 80
e 35 81
e 35 84
e 35 86
e 35 87
e 35 88
e 35 92
e 35 93
e 35 95
e 35 98
e 35 100
e 36 39
e 36 41
e 36 53
e 36 57
e 36 58
e 36 61
e 36 62
e 36 63
e 36 65
e 36 66
e 36 67
e 36 71
e 36 74
e 36 75
e 36 77
e 36 78
e 36 80
e 36 89
e 36 91
e 36 92
e 36 98
e 37 38
e 37 39
e 37 40
e 37 44
e 37 45
e 37 46
e 37 48
e 37 51
e 37 53
e 37 54
e 37 56
e 37 59
e 37 67
e 37 70
e 37 72
e 37 74
e 37 77
e 37 81
e 37 83
e 37 85
e 37 87
e 37 89
e 37 90
e 37 98
e 37 99
e 38 39
e 38 40
e 38 45
e 38 46
e 38 47
e 38 49
e 38 51
e 38 52
e 38 54
e 38 57
e 38 58
e 38 60
e 38 62
e 38 63
e 38 64
e 38 67
e 38 68
e 38 69
e 38 73
e 38 78
e 38 85
e 38 86
e 38 89
e 38 91
e 38 93
e 38 94
e 38 95
e 38 97
e 38 99
e 38 100
e 39 40
e 39 42
e 39 43
e 39 44
e 39 49
e 39 50
e 39 52
e 39 54
e 39 55
e 39 61
e 39 65
e 39 68
e 39 71
e 39 74
e 39 75
e 39 78
e 39 79
e 39 88
e 39 90
e 39 93
e 39 97
e 39 98
e 39 99
e 40 41
e 40 48
e 40 49
e 40 50
e 40 51
e 40 52
e 40 55
e 40 57
e 40 58
e 40 59
e 40 60
e 40 61
e 40 63
e 40 75
e 40 77
e 40 78
e 40 80
e 40 82
e 40 87
e 40 88
e 40 90
e 40 91
e 40 96
e 40 97
e 40 99
e 41 46
e 41 47
e 41 49
e 41 50
e 41 53
e 41 56
e 41 59
e 41 64
e 41 65
e 41 66
e 41 67
e 41 75
e 41 77
e 41 79
e 41 80
e 41 85
e 41 86
e 41 88
e 41 91
e 41 93
e 41 97
e 42 43
e 42 45
e 42 46
e 42 52
e 42 54
e 42 55
e 42 57
e 42 58
e 42 59
e 42 60
e 42 63
e 42 65
e 42 74
e 42 75
e 42 76
e 42 80
e 42 81
e 42 82
e 42 85
e 42 86
e 42 88
e 42 89
e 42 90
e 42 91
e 42 92
e 42 97
e 42 98
e 42 99
e 43 44
e 43 48
e 43 49
e 43 50
e 43 52
e 43 53
e 43 57
e 43 60
e 43 63
e 43 65
e 43 68
e 43 69
e 43 72
e 43 78
e 43 81
e 43 82
e 43 87
e 43 93
e 43 96
e 43 97
e 43 98
e 44 46
e 44 48
e 44 50
e 44 51
e 44 56
e 44 58
e 44 60
e 44 65
e 44 68
e 44 69
e 44 70
e 44 74
e 44 75
e 44 76
e 44 79
e 44 83
e 44 85
e 44 88
e 44 89
e 44 93
e 44 94
e 44 99
e 45 48
e 45 49
e 45 54
e 45 60
e 45 66
e 45 68
e 45 69
e 45 70
e 45 72
e 45 73
e 45 74
e 45 75
e 45 77
e 45 80
e 45 83
e 45 88
e 45 90
e 45 93
e 45 96
e 45 99
e 45 100
e 46 49
e 46 50
e 46 51
e 46 54
e 46 55
e 46 59
e 46 60
e 46 61
e 46 67
e 46 68
e 46 69
e 46 70
e 46 76
e 46 79
e 46 81
e 46 82
e 46 83
e 46 88
e 46 89
e 46 96
e 46 99
e 47 48
e 47 51
e 47 52
e 47 56
e 47 60
e 47 68
e 47 69
e 47 71
e 47 72
e 47 73
e 47 79
e 47 80
e 47 85
e 47 86
e 47 87
e 47 91
e 47 92
e 47 94
e 47 95
e 47 96
e 47 97
e 47 99
e 48 53
e 48 58
e 48 63
e 48 65
e 48 66
e 48 71
e 48 72
e 48 73
e 48 74
e 48 75
e 48 77
e 48 79
e 48 82
e 48 83
e 48 84
e 48 85
e 48 89
e 48 91
e 48 94
e 48 95
e 48 99
e 49 54
e 49 55
e 49 56
e 49 59
e 49 61
e 49 62
e 49 64
e 49 65
e 49 66
e 49 67
e 49 69
e 49 71
e 49 72
e 49 74
e 49 76
e 49 77
e 49 78
e 49 82
e 49 84
e 49 90
e 49 91
e 49 100
e 50 57
e 50 59
e 50 61
e 50 64
e 50 66
e 50 68
e 50 69
e 50 72
e 50 73
e 50 78
e 50 80
e 50 82
e 50 84
e 50 86
e 50 87
e 50 88
e 50 90
e 50 92
e 50 97
e 50 98
e 51 52
e 51 54
e 51 56
e 51 58
e 51 60
e 51 61
e 51 63
e 51 64
e 51 65
e 51 67
e 51 70
e 51 71
e 51 75
e 51 78
e 51 79
e 51 83
e 51 84
e 51 87
e 51 88
e 51 91
e 51 93
e 51 97
e 51 100
e 52 53
e 52 54
e 52 61
e 52 63
e 52 64
e 52 65
e 52 66
e 52 67
e 52 69
e 52 73
e 52 76
e 52 77
e 52 78
e 52 80
e 52 83
e 52 84
e 52 89
e 52 95
e 52 97
e 52 98
e 52 100
e 53 64
e 53 70
e 53 72
e 53 74
e 53 75
e 53 78
e 53 79
e 53 80
e 53 82
e 53 83
e 53 84
e 53 85
e 53 88
e 53 91
e 53 92
e 53 94
e 53 96
e 53 97
e 53 98
e 53 100
e 54 56
e 54 57
e 54 58
e 54 61
e 54 65
e 54 66
e 54 74
e 54 80
e 54 81
e 54 86
e 54 88
e 54 93
e 54 94
e 54 95
e 54 97
e 54 98
e 54 100
e 55 56
e 55 59
e 55 65
e 55 68
e 55 69
e 55 70
e 55 71
e 55 72
e 55 78
e 55 79
e 55 81
e 55 83
e 55 88
e 55 90
e 55 93
e 55 95
e 55 97
e 55 99
e 56 59
e 56 61
e 56 62
e 56 63
e 56 64
e 56 65
e 56 67
e 56 69
e 56 70
e 56 76
e 56 89
e 56 95
e 56 98
e 57 58
e 57 59
e 57 61
e 57 64
e 57 65
e 57 67
e 57 71
e 57 72
e 57 76
e 57 78
e 57 79
e 57 81
e 57 86
e 57 90
e 57 92
e 57 93
e 57 94
e 57 95
e 57 98
e 57 99
e 57 100
e 58 59
e 58 61
e 58 62
e 58 63
e 58 64
e 58 65
e 58 67
e 58 69
e 58 70
e 58 71
e 58 72
e 58 75
e 58 78
e 58 84
e 58 87
e 58 89
e 58 91
e 58 93
e 58 94
e 58 95
e 58 97
e 58 99
e 59 61
e 59 66
e 59 68
e 59 71
e 59 76
e 59 79
e 59 80
e 59 81
e 59 82
e 59 84
e 59 86
e 59 87
e 59 88
e 59 89
e 59 92
e 59 99
e 60 69
e 60 70
e 60 75
e 60 77
e 60 80
e 60 82
e 60 84
e 60 85
e 60 86
e 60 87
e 60 88
e 60 90
e 60 94
e 60 95
e 60 98
e 60 99
e 61 64
e 61 65
e 61 67
e 61 69
e 61 71
e 61 78
e 61 79
e 61 81
e 61 89
e 61 91
e 61 92
e 61 93
e 61 94
e 61 95
e 61 96
e 61 97
e 61 99
e 61 100
e 62 64
e 62 65
e 62 67
e 62 70
e 62 80
e 62 83
e 62 84
e 62 86
e 62 87
e 62 88
e 62 90
e 62 93
e 62 95
e 62 98
e 63 67
e 63 69
e 63 70
e 63 75
e 63 76
e 63 79
e 63 81
e 63 82
e 63 86
e 63 88
e 63 89
e 63 90
e 63 91
e 63 92
e 63 94
e 63 95
e 63 96
e 64 67
e 64 72
e 64 79
e 64 86
e 64 90
e 64 92
e 64 94
e 64 95
e 64 96
e 64 97
e 64 100
e 65 66
e 65 67
e 65 70
e 65 72
e 65 76
e 65 78
e 65 81
e 65 83
e 65 86
e 65 95
e 65 96
e 65 100
e 66 67
e 66 69
e 66 70
e 66 71
e 66 72
e 66 76
e 66 77
e 66 78
e 66 79
e 66 80
e 66 81
e 66 84
e 66 86
e 66 89
e 66 91
e 66 93
e 66 94
e 66 97
e 66 98
e 66 100
e 67 69
e 67 73
e 67 78
e 67 82
e 67 83
e 67 86
e 67 87
e 67 95
e 67 96
e 67 97
e 67 99
e 68 69
e 68 71
e 68 73
e 68 74
e 68 78
e 68 80
e 68 81
e 68 85
e 68 88
e 68 92
e 68 94
e 68 100
e 69 70
e 69 72
e 69 75
e 69 77
e 69 78
e 69 80
e 69 84
e 69 86
e 69 87
e 69 92
e 69 93
e 69 96
e 69 97
e 69 100
e 70 71
e 70 75
e 70 76
e 70 78
e 70 80
e 70 82
e 70 83
e 70 84
e 70 85
e 70 87
e 70 90
e 70 91
e 70 96
e 70 97
e 70 100
e 71 73
e 71 76
e 71 77
e 71 79
e 71 84
e 71 87
e 71 91
e 71 93
e 71 99
e 72 74
e 72 76
e 72 79
e 72 82
e 72 96
e 72 97
e 72 98
e 72 99
e 72 100
e 73 75
e 73 80
e 73 85
e 73 86
e 73 87
e 73 88
e 73 93
e 73 94
e 73 100
e 74 75
e 74 76
e 74 82
e 74 84
e 74 87
e 74 88
e 74 95
e 74 97
e 74 100
e 75 76
e 75 77
e 75 80
e 75 81
e 75 84
e 75 85
e 75 86
e 75 87
e 75 88
e 75 91
e 75 92
e 75 99
e 76 79
e 76 80
e 76 81
e 76 82
e 76 83
e 76 85
e 76 87
e 76 91
e 76 94
e 76 95
e 76 98
e 76 99
e 77 78
e 77 79
e 77 82
e 77 83
e 77 85
e 77 88
e 77 89
e 77 90
e 77 91
e 77 92
e 77 94
e 77 98
e 77 100
e 78 83
e 78 84
e 78 85
e 78 87
e 78 89
e 78 94
e 78 96
e 78 100
e 79 80
e 79 82
e 79 85
e 79 86
e 79 87
e 79 88
e 79 93
e 79 94
e 79 97
e 79 99
e 79 100
e 80 86
e 80 91
e 80 92
e 80 93
e 80 97
e 80 98
e 81 84
e 81 85
e 81 86
e 81 88
e 81 92
e 81 95
e 81 98
e 82 86
e 82 87
e 82 88
e 82 89
e 82 91
e 82 92
e 82 93
e 82 96
e 83 84
e 83 85
e 83 90
e 83 94
e 83 100
e 84 85
e 84 86
e 84 88
e 84 90
e 84 93
e 85 87
e 85 90
e 85 91
e 85 95
e 85 98
e 85 100
e 86 87
e 86 91
e 86 98
e 86 100
e 87 88
e 87 89
e 87 91
e 87 92
e 87 94
e 87 96
e 88 89
e 88 90
e 88 92
e 88 94
e 88 100
e 89 90
e 89 94
e 89 98
e 89 99
e 90 91
e 90 93
e 90 94
e 90 95
e 90 97
e 90 98
e 90 99
e 90 100
e 91 93
e 91 98
e 91 100
e 92 93
e 92 94
e 92 98
e 92 100
e 93 94
e 93 99
e 94 96
e 94 98
e 94 100
e 95 96
e 95 98
e 96 98
e 96 100
e 98 100